Running for instance ./models/r108.txt
Generating routes...
Execution time:  0.147785833333  minutes
Academic license - for non-commercial use only
Warning: constraint name "Cliente esta na rota" has a space
Optimize a model with 26 rows, 5000 columns and 31737 nonzeros
Variable types: 0 continuous, 5000 integer (0 binary)
Coefficient statistics:
  Matrix range     [1e+00, 1e+00]
  Objective range  [5e+01, 2e+02]
  Bounds range     [1e+00, 1e+00]
  RHS range        [1e+00, 2e+01]
Found heuristic solution: objective 1200.0535501
Presolve removed 0 rows and 1942 columns
Presolve time: 0.03s
Presolved: 26 rows, 3058 columns, 19817 nonzeros
Found heuristic solution: objective 868.4618072
Variable types: 0 continuous, 3058 integer (3058 binary)

Root relaxation: objective 4.630301e+02, 113 iterations, 0.00 seconds

    Nodes    |    Current Node    |     Objective Bounds      |     Work
 Expl Unexpl |  Obj  Depth IntInf | Incumbent    BestBd   Gap | It/Node Time

     0     0  463.03006    0   24  868.46181  463.03006  46.7%     -    0s
H    0     0                     559.6069809  463.03006  17.3%     -    0s
H    0     0                     515.7466307  463.03006  10.2%     -    0s
H    0     0                     469.5547116  463.03006  1.39%     -    0s
     0     0  466.03759    0   24  469.55471  466.03759  0.75%     -    0s

Cutting planes:
  MIR: 3
  Zero half: 1

Explored 1 nodes (130 simplex iterations) in 0.08 seconds
Thread count was 8 (of 8 available processors)

Solution count 5: 469.555 515.747 559.607 ... 1006.73

Optimal solution found (tolerance 1.00e-04)
Best objective 4.695547115885e+02, best bound 4.695547115885e+02, gap 0.0000%
2 15 13
1 9 3 24
7 11 19 10 20
18 8 5 17 16
21 22 23 4
Distance: 469.554711589
Execution time:  0.155352266667  minutes
